
(set-logic HORN)
(declare-rel assert_24_1_171_abs (Int Int Int Int Int Int Int Int Int Int Int))
(declare-rel assign_23_1_147_abs (Int Int Int Int Int Int Int Int Int Int Int))
(declare-rel assign_20_5_126_abs (Int Int Int Int Int Int Int Int Int Int Int))
(declare-rel arrayassign_19_5_117_abs (Int Int Int Int Int Int Int Int Int Int Int))
(declare-rel while_18_1_129_abs (Int Int Int Int Int Int Int Int Int Int Int))
(declare-rel assign_17_1_89_abs (Int Int Int Int Int Int Int Int Int Int Int))
(declare-rel assign_14_5_80_abs (Int Int Int Int Int Int Int Int Int Int Int))
(declare-rel arrayassign_13_5_71_abs (Int Int Int Int Int Int Int Int Int Int Int))
(declare-rel while_12_1_83_abs (Int Int Int Int Int Int Int Int Int Int Int))
(declare-rel assign_10_1_49_abs (Int Int Int Int Int Int Int Int Int Int Int))
(declare-rel assign_9_1_37_abs (Int Int Int Int Int Int Int Int Int Int Int))
(declare-rel end_abs (Int Int Int Int Int Int Int Int Int Int Int))
(declare-rel start_abs (Int Int Int Int Int Int Int Int Int Int Int));Number of predicates (nodes) = 13
;Number of variables = 5
;Number of clauses = 16
;
(assert (forall ( (a_copy (Array Int Int)) (a (Array Int Int)) (size Int) (k Int) (i Int) (i1 Int) (i2 Int) (i3 Int) (i4 Int)) (start_abs i4 (select a_copy i4) i3 (select a_copy i3) i2 (select a i2) i1 (select a i1) size k i)))
(assert (forall ( (i Int) (k Int) (size Int) (a (Array Int Int)) (a_copy (Array Int Int)) (i1 Int) (i2 Int) (i3 Int) (i4 Int)) (=> (and (start_abs i3 (select a_copy i3) i3 (select a_copy i3) i1 (select a i1) i1 (select a i1) size k i) (start_abs i3 (select a_copy i3) i3 (select a_copy i3) i1 (select a i1) i2 (select a i2) size k i) (start_abs i3 (select a_copy i3) i3 (select a_copy i3) i2 (select a i2) i1 (select a i1) size k i) (start_abs i3 (select a_copy i3) i3 (select a_copy i3) i2 (select a i2) i2 (select a i2) size k i) (start_abs i3 (select a_copy i3) i4 (select a_copy i4) i1 (select a i1) i1 (select a i1) size k i) (start_abs i3 (select a_copy i3) i4 (select a_copy i4) i1 (select a i1) i2 (select a i2) size k i) (start_abs i3 (select a_copy i3) i4 (select a_copy i4) i2 (select a i2) i1 (select a i1) size k i) (start_abs i3 (select a_copy i3) i4 (select a_copy i4) i2 (select a i2) i2 (select a i2) size k i) (start_abs i4 (select a_copy i4) i3 (select a_copy i3) i1 (select a i1) i1 (select a i1) size k i) (start_abs i4 (select a_copy i4) i3 (select a_copy i3) i1 (select a i1) i2 (select a i2) size k i) (start_abs i4 (select a_copy i4) i3 (select a_copy i3) i2 (select a i2) i1 (select a i1) size k i) (start_abs i4 (select a_copy i4) i3 (select a_copy i3) i2 (select a i2) i2 (select a i2) size k i) (start_abs i4 (select a_copy i4) i4 (select a_copy i4) i1 (select a i1) i1 (select a i1) size k i) (start_abs i4 (select a_copy i4) i4 (select a_copy i4) i1 (select a i1) i2 (select a i2) size k i) (start_abs i4 (select a_copy i4) i4 (select a_copy i4) i2 (select a i2) i1 (select a i1) size k i) (start_abs i4 (select a_copy i4) i4 (select a_copy i4) i2 (select a i2) i2 (select a i2) size k i)) (assign_9_1_37_abs i4 (select a_copy i4) i3 (select a_copy i3) i2 (select a i2) i1 (select a i1) size k i))))
;
;(assign)  i := 0
(assert (forall ( (i Int) (k Int) (size Int) (a (Array Int Int)) (a_copy (Array Int Int)) (i1 Int) (i2 Int) (i3 Int) (i4 Int)) (=> (and (assign_9_1_37_abs i3 (select a_copy i3) i3 (select a_copy i3) i1 (select a i1) i1 (select a i1) size k i) (assign_9_1_37_abs i3 (select a_copy i3) i3 (select a_copy i3) i1 (select a i1) i2 (select a i2) size k i) (assign_9_1_37_abs i3 (select a_copy i3) i3 (select a_copy i3) i2 (select a i2) i1 (select a i1) size k i) (assign_9_1_37_abs i3 (select a_copy i3) i3 (select a_copy i3) i2 (select a i2) i2 (select a i2) size k i) (assign_9_1_37_abs i3 (select a_copy i3) i4 (select a_copy i4) i1 (select a i1) i1 (select a i1) size k i) (assign_9_1_37_abs i3 (select a_copy i3) i4 (select a_copy i4) i1 (select a i1) i2 (select a i2) size k i) (assign_9_1_37_abs i3 (select a_copy i3) i4 (select a_copy i4) i2 (select a i2) i1 (select a i1) size k i) (assign_9_1_37_abs i3 (select a_copy i3) i4 (select a_copy i4) i2 (select a i2) i2 (select a i2) size k i) (assign_9_1_37_abs i4 (select a_copy i4) i3 (select a_copy i3) i1 (select a i1) i1 (select a i1) size k i) (assign_9_1_37_abs i4 (select a_copy i4) i3 (select a_copy i3) i1 (select a i1) i2 (select a i2) size k i) (assign_9_1_37_abs i4 (select a_copy i4) i3 (select a_copy i3) i2 (select a i2) i1 (select a i1) size k i) (assign_9_1_37_abs i4 (select a_copy i4) i3 (select a_copy i3) i2 (select a i2) i2 (select a i2) size k i) (assign_9_1_37_abs i4 (select a_copy i4) i4 (select a_copy i4) i1 (select a i1) i1 (select a i1) size k i) (assign_9_1_37_abs i4 (select a_copy i4) i4 (select a_copy i4) i1 (select a i1) i2 (select a i2) size k i) (assign_9_1_37_abs i4 (select a_copy i4) i4 (select a_copy i4) i2 (select a i2) i1 (select a i1) size k i) (assign_9_1_37_abs i4 (select a_copy i4) i4 (select a_copy i4) i2 (select a i2) i2 (select a i2) size k i)) (assign_10_1_49_abs i4 (select a_copy i4) i3 (select a_copy i3) i2 (select a i2) i1 (select a i1) size k 0))))
;
;(assign)  size := Support.random()
(assert (forall ( (rnd Int) (i Int) (k Int) (size Int) (a (Array Int Int)) (a_copy (Array Int Int)) (i1 Int) (i2 Int) (i3 Int) (i4 Int)) (=> (and (assign_10_1_49_abs i3 (select a_copy i3) i3 (select a_copy i3) i1 (select a i1) i1 (select a i1) size k i) (assign_10_1_49_abs i3 (select a_copy i3) i3 (select a_copy i3) i1 (select a i1) i2 (select a i2) size k i) (assign_10_1_49_abs i3 (select a_copy i3) i3 (select a_copy i3) i2 (select a i2) i1 (select a i1) size k i) (assign_10_1_49_abs i3 (select a_copy i3) i3 (select a_copy i3) i2 (select a i2) i2 (select a i2) size k i) (assign_10_1_49_abs i3 (select a_copy i3) i4 (select a_copy i4) i1 (select a i1) i1 (select a i1) size k i) (assign_10_1_49_abs i3 (select a_copy i3) i4 (select a_copy i4) i1 (select a i1) i2 (select a i2) size k i) (assign_10_1_49_abs i3 (select a_copy i3) i4 (select a_copy i4) i2 (select a i2) i1 (select a i1) size k i) (assign_10_1_49_abs i3 (select a_copy i3) i4 (select a_copy i4) i2 (select a i2) i2 (select a i2) size k i) (assign_10_1_49_abs i4 (select a_copy i4) i3 (select a_copy i3) i1 (select a i1) i1 (select a i1) size k i) (assign_10_1_49_abs i4 (select a_copy i4) i3 (select a_copy i3) i1 (select a i1) i2 (select a i2) size k i) (assign_10_1_49_abs i4 (select a_copy i4) i3 (select a_copy i3) i2 (select a i2) i1 (select a i1) size k i) (assign_10_1_49_abs i4 (select a_copy i4) i3 (select a_copy i3) i2 (select a i2) i2 (select a i2) size k i) (assign_10_1_49_abs i4 (select a_copy i4) i4 (select a_copy i4) i1 (select a i1) i1 (select a i1) size k i) (assign_10_1_49_abs i4 (select a_copy i4) i4 (select a_copy i4) i1 (select a i1) i2 (select a i2) size k i) (assign_10_1_49_abs i4 (select a_copy i4) i4 (select a_copy i4) i2 (select a i2) i1 (select a i1) size k i) (assign_10_1_49_abs i4 (select a_copy i4) i4 (select a_copy i4) i2 (select a i2) i2 (select a i2) size k i)) (while_12_1_83_abs i4 (select a_copy i4) i3 (select a_copy i3) i2 (select a i2) i1 (select a i1) rnd k i))))
;
;(while)   while((i<size))
(assert (forall ( (a_copy (Array Int Int)) (a (Array Int Int)) (size Int) (k Int) (i Int) (i1 Int) (i2 Int) (i3 Int) (i4 Int)) (=> (and (while_12_1_83_abs i3 (select a_copy i3) i3 (select a_copy i3) i1 (select a i1) i1 (select a i1) size k i) (while_12_1_83_abs i3 (select a_copy i3) i3 (select a_copy i3) i1 (select a i1) i2 (select a i2) size k i) (while_12_1_83_abs i3 (select a_copy i3) i3 (select a_copy i3) i2 (select a i2) i1 (select a i1) size k i) (while_12_1_83_abs i3 (select a_copy i3) i3 (select a_copy i3) i2 (select a i2) i2 (select a i2) size k i) (while_12_1_83_abs i3 (select a_copy i3) i4 (select a_copy i4) i1 (select a i1) i1 (select a i1) size k i) (while_12_1_83_abs i3 (select a_copy i3) i4 (select a_copy i4) i1 (select a i1) i2 (select a i2) size k i) (while_12_1_83_abs i3 (select a_copy i3) i4 (select a_copy i4) i2 (select a i2) i1 (select a i1) size k i) (while_12_1_83_abs i3 (select a_copy i3) i4 (select a_copy i4) i2 (select a i2) i2 (select a i2) size k i) (while_12_1_83_abs i4 (select a_copy i4) i3 (select a_copy i3) i1 (select a i1) i1 (select a i1) size k i) (while_12_1_83_abs i4 (select a_copy i4) i3 (select a_copy i3) i1 (select a i1) i2 (select a i2) size k i) (while_12_1_83_abs i4 (select a_copy i4) i3 (select a_copy i3) i2 (select a i2) i1 (select a i1) size k i) (while_12_1_83_abs i4 (select a_copy i4) i3 (select a_copy i3) i2 (select a i2) i2 (select a i2) size k i) (while_12_1_83_abs i4 (select a_copy i4) i4 (select a_copy i4) i1 (select a i1) i1 (select a i1) size k i) (while_12_1_83_abs i4 (select a_copy i4) i4 (select a_copy i4) i1 (select a i1) i2 (select a i2) size k i) (while_12_1_83_abs i4 (select a_copy i4) i4 (select a_copy i4) i2 (select a i2) i1 (select a i1) size k i) (while_12_1_83_abs i4 (select a_copy i4) i4 (select a_copy i4) i2 (select a i2) i2 (select a i2) size k i) (< i size)) (arrayassign_13_5_71_abs i4 (select a_copy i4) i3 (select a_copy i3) i2 (select a i2) i1 (select a i1) size k i))))
(assert (forall ( (a_copy (Array Int Int)) (a (Array Int Int)) (size Int) (k Int) (i Int) (i1 Int) (i2 Int) (i3 Int) (i4 Int)) (=> (and (while_12_1_83_abs i3 (select a_copy i3) i3 (select a_copy i3) i1 (select a i1) i1 (select a i1) size k i) (while_12_1_83_abs i3 (select a_copy i3) i3 (select a_copy i3) i1 (select a i1) i2 (select a i2) size k i) (while_12_1_83_abs i3 (select a_copy i3) i3 (select a_copy i3) i2 (select a i2) i1 (select a i1) size k i) (while_12_1_83_abs i3 (select a_copy i3) i3 (select a_copy i3) i2 (select a i2) i2 (select a i2) size k i) (while_12_1_83_abs i3 (select a_copy i3) i4 (select a_copy i4) i1 (select a i1) i1 (select a i1) size k i) (while_12_1_83_abs i3 (select a_copy i3) i4 (select a_copy i4) i1 (select a i1) i2 (select a i2) size k i) (while_12_1_83_abs i3 (select a_copy i3) i4 (select a_copy i4) i2 (select a i2) i1 (select a i1) size k i) (while_12_1_83_abs i3 (select a_copy i3) i4 (select a_copy i4) i2 (select a i2) i2 (select a i2) size k i) (while_12_1_83_abs i4 (select a_copy i4) i3 (select a_copy i3) i1 (select a i1) i1 (select a i1) size k i) (while_12_1_83_abs i4 (select a_copy i4) i3 (select a_copy i3) i1 (select a i1) i2 (select a i2) size k i) (while_12_1_83_abs i4 (select a_copy i4) i3 (select a_copy i3) i2 (select a i2) i1 (select a i1) size k i) (while_12_1_83_abs i4 (select a_copy i4) i3 (select a_copy i3) i2 (select a i2) i2 (select a i2) size k i) (while_12_1_83_abs i4 (select a_copy i4) i4 (select a_copy i4) i1 (select a i1) i1 (select a i1) size k i) (while_12_1_83_abs i4 (select a_copy i4) i4 (select a_copy i4) i1 (select a i1) i2 (select a i2) size k i) (while_12_1_83_abs i4 (select a_copy i4) i4 (select a_copy i4) i2 (select a i2) i1 (select a i1) size k i) (while_12_1_83_abs i4 (select a_copy i4) i4 (select a_copy i4) i2 (select a i2) i2 (select a i2) size k i) (not (< i size))) (assign_17_1_89_abs i4 (select a_copy i4) i3 (select a_copy i3) i2 (select a i2) i1 (select a i1) size k i))))
;
;(aassign) a_copy[i] := a[i]
(assert (forall ( (i Int) (k Int) (size Int) (a (Array Int Int)) (a_copy (Array Int Int)) (i1 Int) (i2 Int) (i3 Int) (i4 Int)) (=> (and (arrayassign_13_5_71_abs i3 (select a_copy i3) i3 (select a_copy i3) i (select a i) i (select a i) size k i) (arrayassign_13_5_71_abs i3 (select a_copy i3) i3 (select a_copy i3) i (select a i) i1 (select a i1) size k i) (arrayassign_13_5_71_abs i3 (select a_copy i3) i3 (select a_copy i3) i (select a i) i2 (select a i2) size k i) (arrayassign_13_5_71_abs i3 (select a_copy i3) i3 (select a_copy i3) i1 (select a i1) i (select a i) size k i) (arrayassign_13_5_71_abs i3 (select a_copy i3) i3 (select a_copy i3) i1 (select a i1) i1 (select a i1) size k i) (arrayassign_13_5_71_abs i3 (select a_copy i3) i3 (select a_copy i3) i1 (select a i1) i2 (select a i2) size k i) (arrayassign_13_5_71_abs i3 (select a_copy i3) i3 (select a_copy i3) i2 (select a i2) i (select a i) size k i) (arrayassign_13_5_71_abs i3 (select a_copy i3) i3 (select a_copy i3) i2 (select a i2) i1 (select a i1) size k i) (arrayassign_13_5_71_abs i3 (select a_copy i3) i3 (select a_copy i3) i2 (select a i2) i2 (select a i2) size k i) (arrayassign_13_5_71_abs i3 (select a_copy i3) i4 (select a_copy i4) i (select a i) i (select a i) size k i) (arrayassign_13_5_71_abs i3 (select a_copy i3) i4 (select a_copy i4) i (select a i) i1 (select a i1) size k i) (arrayassign_13_5_71_abs i3 (select a_copy i3) i4 (select a_copy i4) i (select a i) i2 (select a i2) size k i) (arrayassign_13_5_71_abs i3 (select a_copy i3) i4 (select a_copy i4) i1 (select a i1) i (select a i) size k i) (arrayassign_13_5_71_abs i3 (select a_copy i3) i4 (select a_copy i4) i1 (select a i1) i1 (select a i1) size k i) (arrayassign_13_5_71_abs i3 (select a_copy i3) i4 (select a_copy i4) i1 (select a i1) i2 (select a i2) size k i) (arrayassign_13_5_71_abs i3 (select a_copy i3) i4 (select a_copy i4) i2 (select a i2) i (select a i) size k i) (arrayassign_13_5_71_abs i3 (select a_copy i3) i4 (select a_copy i4) i2 (select a i2) i1 (select a i1) size k i) (arrayassign_13_5_71_abs i3 (select a_copy i3) i4 (select a_copy i4) i2 (select a i2) i2 (select a i2) size k i) (arrayassign_13_5_71_abs i4 (select a_copy i4) i3 (select a_copy i3) i (select a i) i (select a i) size k i) (arrayassign_13_5_71_abs i4 (select a_copy i4) i3 (select a_copy i3) i (select a i) i1 (select a i1) size k i) (arrayassign_13_5_71_abs i4 (select a_copy i4) i3 (select a_copy i3) i (select a i) i2 (select a i2) size k i) (arrayassign_13_5_71_abs i4 (select a_copy i4) i3 (select a_copy i3) i1 (select a i1) i (select a i) size k i) (arrayassign_13_5_71_abs i4 (select a_copy i4) i3 (select a_copy i3) i1 (select a i1) i1 (select a i1) size k i) (arrayassign_13_5_71_abs i4 (select a_copy i4) i3 (select a_copy i3) i1 (select a i1) i2 (select a i2) size k i) (arrayassign_13_5_71_abs i4 (select a_copy i4) i3 (select a_copy i3) i2 (select a i2) i (select a i) size k i) (arrayassign_13_5_71_abs i4 (select a_copy i4) i3 (select a_copy i3) i2 (select a i2) i1 (select a i1) size k i) (arrayassign_13_5_71_abs i4 (select a_copy i4) i3 (select a_copy i3) i2 (select a i2) i2 (select a i2) size k i) (arrayassign_13_5_71_abs i4 (select a_copy i4) i4 (select a_copy i4) i (select a i) i (select a i) size k i) (arrayassign_13_5_71_abs i4 (select a_copy i4) i4 (select a_copy i4) i (select a i) i1 (select a i1) size k i) (arrayassign_13_5_71_abs i4 (select a_copy i4) i4 (select a_copy i4) i (select a i) i2 (select a i2) size k i) (arrayassign_13_5_71_abs i4 (select a_copy i4) i4 (select a_copy i4) i1 (select a i1) i (select a i) size k i) (arrayassign_13_5_71_abs i4 (select a_copy i4) i4 (select a_copy i4) i1 (select a i1) i1 (select a i1) size k i) (arrayassign_13_5_71_abs i4 (select a_copy i4) i4 (select a_copy i4) i1 (select a i1) i2 (select a i2) size k i) (arrayassign_13_5_71_abs i4 (select a_copy i4) i4 (select a_copy i4) i2 (select a i2) i (select a i) size k i) (arrayassign_13_5_71_abs i4 (select a_copy i4) i4 (select a_copy i4) i2 (select a i2) i1 (select a i1) size k i) (arrayassign_13_5_71_abs i4 (select a_copy i4) i4 (select a_copy i4) i2 (select a i2) i2 (select a i2) size k i)) (assign_14_5_80_abs i4 (ite (= i i4) (select a i) (select a_copy i4)) i3 (ite (= i i3) (select a i) (select a_copy i3)) i2 (select a i2) i1 (select a i1) size k i))))
;
;(assign)  i := (i+1)
(assert (forall ( (i Int) (k Int) (size Int) (a (Array Int Int)) (a_copy (Array Int Int)) (i1 Int) (i2 Int) (i3 Int) (i4 Int)) (=> (and (assign_14_5_80_abs i3 (select a_copy i3) i3 (select a_copy i3) i1 (select a i1) i1 (select a i1) size k i) (assign_14_5_80_abs i3 (select a_copy i3) i3 (select a_copy i3) i1 (select a i1) i2 (select a i2) size k i) (assign_14_5_80_abs i3 (select a_copy i3) i3 (select a_copy i3) i2 (select a i2) i1 (select a i1) size k i) (assign_14_5_80_abs i3 (select a_copy i3) i3 (select a_copy i3) i2 (select a i2) i2 (select a i2) size k i) (assign_14_5_80_abs i3 (select a_copy i3) i4 (select a_copy i4) i1 (select a i1) i1 (select a i1) size k i) (assign_14_5_80_abs i3 (select a_copy i3) i4 (select a_copy i4) i1 (select a i1) i2 (select a i2) size k i) (assign_14_5_80_abs i3 (select a_copy i3) i4 (select a_copy i4) i2 (select a i2) i1 (select a i1) size k i) (assign_14_5_80_abs i3 (select a_copy i3) i4 (select a_copy i4) i2 (select a i2) i2 (select a i2) size k i) (assign_14_5_80_abs i4 (select a_copy i4) i3 (select a_copy i3) i1 (select a i1) i1 (select a i1) size k i) (assign_14_5_80_abs i4 (select a_copy i4) i3 (select a_copy i3) i1 (select a i1) i2 (select a i2) size k i) (assign_14_5_80_abs i4 (select a_copy i4) i3 (select a_copy i3) i2 (select a i2) i1 (select a i1) size k i) (assign_14_5_80_abs i4 (select a_copy i4) i3 (select a_copy i3) i2 (select a i2) i2 (select a i2) size k i) (assign_14_5_80_abs i4 (select a_copy i4) i4 (select a_copy i4) i1 (select a i1) i1 (select a i1) size k i) (assign_14_5_80_abs i4 (select a_copy i4) i4 (select a_copy i4) i1 (select a i1) i2 (select a i2) size k i) (assign_14_5_80_abs i4 (select a_copy i4) i4 (select a_copy i4) i2 (select a i2) i1 (select a i1) size k i) (assign_14_5_80_abs i4 (select a_copy i4) i4 (select a_copy i4) i2 (select a i2) i2 (select a i2) size k i)) (while_12_1_83_abs i4 (select a_copy i4) i3 (select a_copy i3) i2 (select a i2) i1 (select a i1) size k (+ i 1)))))
;
;(assign)  i := 0
(assert (forall ( (i Int) (k Int) (size Int) (a (Array Int Int)) (a_copy (Array Int Int)) (i1 Int) (i2 Int) (i3 Int) (i4 Int)) (=> (and (assign_17_1_89_abs i3 (select a_copy i3) i3 (select a_copy i3) i1 (select a i1) i1 (select a i1) size k i) (assign_17_1_89_abs i3 (select a_copy i3) i3 (select a_copy i3) i1 (select a i1) i2 (select a i2) size k i) (assign_17_1_89_abs i3 (select a_copy i3) i3 (select a_copy i3) i2 (select a i2) i1 (select a i1) size k i) (assign_17_1_89_abs i3 (select a_copy i3) i3 (select a_copy i3) i2 (select a i2) i2 (select a i2) size k i) (assign_17_1_89_abs i3 (select a_copy i3) i4 (select a_copy i4) i1 (select a i1) i1 (select a i1) size k i) (assign_17_1_89_abs i3 (select a_copy i3) i4 (select a_copy i4) i1 (select a i1) i2 (select a i2) size k i) (assign_17_1_89_abs i3 (select a_copy i3) i4 (select a_copy i4) i2 (select a i2) i1 (select a i1) size k i) (assign_17_1_89_abs i3 (select a_copy i3) i4 (select a_copy i4) i2 (select a i2) i2 (select a i2) size k i) (assign_17_1_89_abs i4 (select a_copy i4) i3 (select a_copy i3) i1 (select a i1) i1 (select a i1) size k i) (assign_17_1_89_abs i4 (select a_copy i4) i3 (select a_copy i3) i1 (select a i1) i2 (select a i2) size k i) (assign_17_1_89_abs i4 (select a_copy i4) i3 (select a_copy i3) i2 (select a i2) i1 (select a i1) size k i) (assign_17_1_89_abs i4 (select a_copy i4) i3 (select a_copy i3) i2 (select a i2) i2 (select a i2) size k i) (assign_17_1_89_abs i4 (select a_copy i4) i4 (select a_copy i4) i1 (select a i1) i1 (select a i1) size k i) (assign_17_1_89_abs i4 (select a_copy i4) i4 (select a_copy i4) i1 (select a i1) i2 (select a i2) size k i) (assign_17_1_89_abs i4 (select a_copy i4) i4 (select a_copy i4) i2 (select a i2) i1 (select a i1) size k i) (assign_17_1_89_abs i4 (select a_copy i4) i4 (select a_copy i4) i2 (select a i2) i2 (select a i2) size k i)) (while_18_1_129_abs i4 (select a_copy i4) i3 (select a_copy i3) i2 (select a i2) i1 (select a i1) size k 0))))
;
;(while)   while((i<size))
(assert (forall ( (a_copy (Array Int Int)) (a (Array Int Int)) (size Int) (k Int) (i Int) (i1 Int) (i2 Int) (i3 Int) (i4 Int)) (=> (and (while_18_1_129_abs i3 (select a_copy i3) i3 (select a_copy i3) i1 (select a i1) i1 (select a i1) size k i) (while_18_1_129_abs i3 (select a_copy i3) i3 (select a_copy i3) i1 (select a i1) i2 (select a i2) size k i) (while_18_1_129_abs i3 (select a_copy i3) i3 (select a_copy i3) i2 (select a i2) i1 (select a i1) size k i) (while_18_1_129_abs i3 (select a_copy i3) i3 (select a_copy i3) i2 (select a i2) i2 (select a i2) size k i) (while_18_1_129_abs i3 (select a_copy i3) i4 (select a_copy i4) i1 (select a i1) i1 (select a i1) size k i) (while_18_1_129_abs i3 (select a_copy i3) i4 (select a_copy i4) i1 (select a i1) i2 (select a i2) size k i) (while_18_1_129_abs i3 (select a_copy i3) i4 (select a_copy i4) i2 (select a i2) i1 (select a i1) size k i) (while_18_1_129_abs i3 (select a_copy i3) i4 (select a_copy i4) i2 (select a i2) i2 (select a i2) size k i) (while_18_1_129_abs i4 (select a_copy i4) i3 (select a_copy i3) i1 (select a i1) i1 (select a i1) size k i) (while_18_1_129_abs i4 (select a_copy i4) i3 (select a_copy i3) i1 (select a i1) i2 (select a i2) size k i) (while_18_1_129_abs i4 (select a_copy i4) i3 (select a_copy i3) i2 (select a i2) i1 (select a i1) size k i) (while_18_1_129_abs i4 (select a_copy i4) i3 (select a_copy i3) i2 (select a i2) i2 (select a i2) size k i) (while_18_1_129_abs i4 (select a_copy i4) i4 (select a_copy i4) i1 (select a i1) i1 (select a i1) size k i) (while_18_1_129_abs i4 (select a_copy i4) i4 (select a_copy i4) i1 (select a i1) i2 (select a i2) size k i) (while_18_1_129_abs i4 (select a_copy i4) i4 (select a_copy i4) i2 (select a i2) i1 (select a i1) size k i) (while_18_1_129_abs i4 (select a_copy i4) i4 (select a_copy i4) i2 (select a i2) i2 (select a i2) size k i) (< i size)) (arrayassign_19_5_117_abs i4 (select a_copy i4) i3 (select a_copy i3) i2 (select a i2) i1 (select a i1) size k i))))
(assert (forall ( (a_copy (Array Int Int)) (a (Array Int Int)) (size Int) (k Int) (i Int) (i1 Int) (i2 Int) (i3 Int) (i4 Int)) (=> (and (while_18_1_129_abs i3 (select a_copy i3) i3 (select a_copy i3) i1 (select a i1) i1 (select a i1) size k i) (while_18_1_129_abs i3 (select a_copy i3) i3 (select a_copy i3) i1 (select a i1) i2 (select a i2) size k i) (while_18_1_129_abs i3 (select a_copy i3) i3 (select a_copy i3) i2 (select a i2) i1 (select a i1) size k i) (while_18_1_129_abs i3 (select a_copy i3) i3 (select a_copy i3) i2 (select a i2) i2 (select a i2) size k i) (while_18_1_129_abs i3 (select a_copy i3) i4 (select a_copy i4) i1 (select a i1) i1 (select a i1) size k i) (while_18_1_129_abs i3 (select a_copy i3) i4 (select a_copy i4) i1 (select a i1) i2 (select a i2) size k i) (while_18_1_129_abs i3 (select a_copy i3) i4 (select a_copy i4) i2 (select a i2) i1 (select a i1) size k i) (while_18_1_129_abs i3 (select a_copy i3) i4 (select a_copy i4) i2 (select a i2) i2 (select a i2) size k i) (while_18_1_129_abs i4 (select a_copy i4) i3 (select a_copy i3) i1 (select a i1) i1 (select a i1) size k i) (while_18_1_129_abs i4 (select a_copy i4) i3 (select a_copy i3) i1 (select a i1) i2 (select a i2) size k i) (while_18_1_129_abs i4 (select a_copy i4) i3 (select a_copy i3) i2 (select a i2) i1 (select a i1) size k i) (while_18_1_129_abs i4 (select a_copy i4) i3 (select a_copy i3) i2 (select a i2) i2 (select a i2) size k i) (while_18_1_129_abs i4 (select a_copy i4) i4 (select a_copy i4) i1 (select a i1) i1 (select a i1) size k i) (while_18_1_129_abs i4 (select a_copy i4) i4 (select a_copy i4) i1 (select a i1) i2 (select a i2) size k i) (while_18_1_129_abs i4 (select a_copy i4) i4 (select a_copy i4) i2 (select a i2) i1 (select a i1) size k i) (while_18_1_129_abs i4 (select a_copy i4) i4 (select a_copy i4) i2 (select a i2) i2 (select a i2) size k i) (not (< i size))) (assign_23_1_147_abs i4 (select a_copy i4) i3 (select a_copy i3) i2 (select a i2) i1 (select a i1) size k i))))
;
;(aassign) a[i] := a_copy[((size-i)-1)]
(assert (forall ( (i Int) (k Int) (size Int) (a (Array Int Int)) (a_copy (Array Int Int)) (i1 Int) (i2 Int) (i3 Int) (i4 Int)) (=> (and (arrayassign_19_5_117_abs (- (- size i) 1) (select a_copy (- (- size i) 1)) (- (- size i) 1) (select a_copy (- (- size i) 1)) i1 (select a i1) i1 (select a i1) size k i) (arrayassign_19_5_117_abs (- (- size i) 1) (select a_copy (- (- size i) 1)) (- (- size i) 1) (select a_copy (- (- size i) 1)) i1 (select a i1) i2 (select a i2) size k i) (arrayassign_19_5_117_abs (- (- size i) 1) (select a_copy (- (- size i) 1)) (- (- size i) 1) (select a_copy (- (- size i) 1)) i2 (select a i2) i1 (select a i1) size k i) (arrayassign_19_5_117_abs (- (- size i) 1) (select a_copy (- (- size i) 1)) (- (- size i) 1) (select a_copy (- (- size i) 1)) i2 (select a i2) i2 (select a i2) size k i) (arrayassign_19_5_117_abs (- (- size i) 1) (select a_copy (- (- size i) 1)) i3 (select a_copy i3) i1 (select a i1) i1 (select a i1) size k i) (arrayassign_19_5_117_abs (- (- size i) 1) (select a_copy (- (- size i) 1)) i3 (select a_copy i3) i1 (select a i1) i2 (select a i2) size k i) (arrayassign_19_5_117_abs (- (- size i) 1) (select a_copy (- (- size i) 1)) i3 (select a_copy i3) i2 (select a i2) i1 (select a i1) size k i) (arrayassign_19_5_117_abs (- (- size i) 1) (select a_copy (- (- size i) 1)) i3 (select a_copy i3) i2 (select a i2) i2 (select a i2) size k i) (arrayassign_19_5_117_abs (- (- size i) 1) (select a_copy (- (- size i) 1)) i4 (select a_copy i4) i1 (select a i1) i1 (select a i1) size k i) (arrayassign_19_5_117_abs (- (- size i) 1) (select a_copy (- (- size i) 1)) i4 (select a_copy i4) i1 (select a i1) i2 (select a i2) size k i) (arrayassign_19_5_117_abs (- (- size i) 1) (select a_copy (- (- size i) 1)) i4 (select a_copy i4) i2 (select a i2) i1 (select a i1) size k i) (arrayassign_19_5_117_abs (- (- size i) 1) (select a_copy (- (- size i) 1)) i4 (select a_copy i4) i2 (select a i2) i2 (select a i2) size k i) (arrayassign_19_5_117_abs i3 (select a_copy i3) (- (- size i) 1) (select a_copy (- (- size i) 1)) i1 (select a i1) i1 (select a i1) size k i) (arrayassign_19_5_117_abs i3 (select a_copy i3) (- (- size i) 1) (select a_copy (- (- size i) 1)) i1 (select a i1) i2 (select a i2) size k i) (arrayassign_19_5_117_abs i3 (select a_copy i3) (- (- size i) 1) (select a_copy (- (- size i) 1)) i2 (select a i2) i1 (select a i1) size k i) (arrayassign_19_5_117_abs i3 (select a_copy i3) (- (- size i) 1) (select a_copy (- (- size i) 1)) i2 (select a i2) i2 (select a i2) size k i) (arrayassign_19_5_117_abs i3 (select a_copy i3) i3 (select a_copy i3) i1 (select a i1) i1 (select a i1) size k i) (arrayassign_19_5_117_abs i3 (select a_copy i3) i3 (select a_copy i3) i1 (select a i1) i2 (select a i2) size k i) (arrayassign_19_5_117_abs i3 (select a_copy i3) i3 (select a_copy i3) i2 (select a i2) i1 (select a i1) size k i) (arrayassign_19_5_117_abs i3 (select a_copy i3) i3 (select a_copy i3) i2 (select a i2) i2 (select a i2) size k i) (arrayassign_19_5_117_abs i3 (select a_copy i3) i4 (select a_copy i4) i1 (select a i1) i1 (select a i1) size k i) (arrayassign_19_5_117_abs i3 (select a_copy i3) i4 (select a_copy i4) i1 (select a i1) i2 (select a i2) size k i) (arrayassign_19_5_117_abs i3 (select a_copy i3) i4 (select a_copy i4) i2 (select a i2) i1 (select a i1) size k i) (arrayassign_19_5_117_abs i3 (select a_copy i3) i4 (select a_copy i4) i2 (select a i2) i2 (select a i2) size k i) (arrayassign_19_5_117_abs i4 (select a_copy i4) (- (- size i) 1) (select a_copy (- (- size i) 1)) i1 (select a i1) i1 (select a i1) size k i) (arrayassign_19_5_117_abs i4 (select a_copy i4) (- (- size i) 1) (select a_copy (- (- size i) 1)) i1 (select a i1) i2 (select a i2) size k i) (arrayassign_19_5_117_abs i4 (select a_copy i4) (- (- size i) 1) (select a_copy (- (- size i) 1)) i2 (select a i2) i1 (select a i1) size k i) (arrayassign_19_5_117_abs i4 (select a_copy i4) (- (- size i) 1) (select a_copy (- (- size i) 1)) i2 (select a i2) i2 (select a i2) size k i) (arrayassign_19_5_117_abs i4 (select a_copy i4) i3 (select a_copy i3) i1 (select a i1) i1 (select a i1) size k i) (arrayassign_19_5_117_abs i4 (select a_copy i4) i3 (select a_copy i3) i1 (select a i1) i2 (select a i2) size k i) (arrayassign_19_5_117_abs i4 (select a_copy i4) i3 (select a_copy i3) i2 (select a i2) i1 (select a i1) size k i) (arrayassign_19_5_117_abs i4 (select a_copy i4) i3 (select a_copy i3) i2 (select a i2) i2 (select a i2) size k i) (arrayassign_19_5_117_abs i4 (select a_copy i4) i4 (select a_copy i4) i1 (select a i1) i1 (select a i1) size k i) (arrayassign_19_5_117_abs i4 (select a_copy i4) i4 (select a_copy i4) i1 (select a i1) i2 (select a i2) size k i) (arrayassign_19_5_117_abs i4 (select a_copy i4) i4 (select a_copy i4) i2 (select a i2) i1 (select a i1) size k i) (arrayassign_19_5_117_abs i4 (select a_copy i4) i4 (select a_copy i4) i2 (select a i2) i2 (select a i2) size k i)) (assign_20_5_126_abs i4 (select a_copy i4) i3 (select a_copy i3) i2 (ite (= i i2) (select a_copy (- (- size i) 1)) (select a i2)) i1 (ite (= i i1) (select a_copy (- (- size i) 1)) (select a i1)) size k i))))
;
;(assign)  i := (i+1)
(assert (forall ( (i Int) (k Int) (size Int) (a (Array Int Int)) (a_copy (Array Int Int)) (i1 Int) (i2 Int) (i3 Int) (i4 Int)) (=> (and (assign_20_5_126_abs i3 (select a_copy i3) i3 (select a_copy i3) i1 (select a i1) i1 (select a i1) size k i) (assign_20_5_126_abs i3 (select a_copy i3) i3 (select a_copy i3) i1 (select a i1) i2 (select a i2) size k i) (assign_20_5_126_abs i3 (select a_copy i3) i3 (select a_copy i3) i2 (select a i2) i1 (select a i1) size k i) (assign_20_5_126_abs i3 (select a_copy i3) i3 (select a_copy i3) i2 (select a i2) i2 (select a i2) size k i) (assign_20_5_126_abs i3 (select a_copy i3) i4 (select a_copy i4) i1 (select a i1) i1 (select a i1) size k i) (assign_20_5_126_abs i3 (select a_copy i3) i4 (select a_copy i4) i1 (select a i1) i2 (select a i2) size k i) (assign_20_5_126_abs i3 (select a_copy i3) i4 (select a_copy i4) i2 (select a i2) i1 (select a i1) size k i) (assign_20_5_126_abs i3 (select a_copy i3) i4 (select a_copy i4) i2 (select a i2) i2 (select a i2) size k i) (assign_20_5_126_abs i4 (select a_copy i4) i3 (select a_copy i3) i1 (select a i1) i1 (select a i1) size k i) (assign_20_5_126_abs i4 (select a_copy i4) i3 (select a_copy i3) i1 (select a i1) i2 (select a i2) size k i) (assign_20_5_126_abs i4 (select a_copy i4) i3 (select a_copy i3) i2 (select a i2) i1 (select a i1) size k i) (assign_20_5_126_abs i4 (select a_copy i4) i3 (select a_copy i3) i2 (select a i2) i2 (select a i2) size k i) (assign_20_5_126_abs i4 (select a_copy i4) i4 (select a_copy i4) i1 (select a i1) i1 (select a i1) size k i) (assign_20_5_126_abs i4 (select a_copy i4) i4 (select a_copy i4) i1 (select a i1) i2 (select a i2) size k i) (assign_20_5_126_abs i4 (select a_copy i4) i4 (select a_copy i4) i2 (select a i2) i1 (select a i1) size k i) (assign_20_5_126_abs i4 (select a_copy i4) i4 (select a_copy i4) i2 (select a i2) i2 (select a i2) size k i)) (while_18_1_129_abs i4 (select a_copy i4) i3 (select a_copy i3) i2 (select a i2) i1 (select a i1) size k (+ i 1)))))
;
;(assign)  k := Support.random(0, (size+1))
(assert (forall ( (rnd Int) (a_copy (Array Int Int)) (a (Array Int Int)) (size Int) (k Int) (i Int) (i1 Int) (i2 Int) (i3 Int) (i4 Int)) (=> (and (assign_23_1_147_abs i3 (select a_copy i3) i3 (select a_copy i3) i1 (select a i1) i1 (select a i1) size k i) (assign_23_1_147_abs i3 (select a_copy i3) i3 (select a_copy i3) i1 (select a i1) i2 (select a i2) size k i) (assign_23_1_147_abs i3 (select a_copy i3) i3 (select a_copy i3) i2 (select a i2) i1 (select a i1) size k i) (assign_23_1_147_abs i3 (select a_copy i3) i3 (select a_copy i3) i2 (select a i2) i2 (select a i2) size k i) (assign_23_1_147_abs i3 (select a_copy i3) i4 (select a_copy i4) i1 (select a i1) i1 (select a i1) size k i) (assign_23_1_147_abs i3 (select a_copy i3) i4 (select a_copy i4) i1 (select a i1) i2 (select a i2) size k i) (assign_23_1_147_abs i3 (select a_copy i3) i4 (select a_copy i4) i2 (select a i2) i1 (select a i1) size k i) (assign_23_1_147_abs i3 (select a_copy i3) i4 (select a_copy i4) i2 (select a i2) i2 (select a i2) size k i) (assign_23_1_147_abs i4 (select a_copy i4) i3 (select a_copy i3) i1 (select a i1) i1 (select a i1) size k i) (assign_23_1_147_abs i4 (select a_copy i4) i3 (select a_copy i3) i1 (select a i1) i2 (select a i2) size k i) (assign_23_1_147_abs i4 (select a_copy i4) i3 (select a_copy i3) i2 (select a i2) i1 (select a i1) size k i) (assign_23_1_147_abs i4 (select a_copy i4) i3 (select a_copy i3) i2 (select a i2) i2 (select a i2) size k i) (assign_23_1_147_abs i4 (select a_copy i4) i4 (select a_copy i4) i1 (select a i1) i1 (select a i1) size k i) (assign_23_1_147_abs i4 (select a_copy i4) i4 (select a_copy i4) i1 (select a i1) i2 (select a i2) size k i) (assign_23_1_147_abs i4 (select a_copy i4) i4 (select a_copy i4) i2 (select a i2) i1 (select a i1) size k i) (assign_23_1_147_abs i4 (select a_copy i4) i4 (select a_copy i4) i2 (select a i2) i2 (select a i2) size k i) (>= rnd 0) (< rnd (+ size 1))) (assert_24_1_171_abs i4 (select a_copy i4) i3 (select a_copy i3) i2 (select a i2) i1 (select a i1) size rnd i))))
;
;(assert)  (a_copy[((size-1)-k)]==a[k])
(assert (forall ( (i Int) (k Int) (size Int) (a (Array Int Int)) (a_copy (Array Int Int))) (=> (assert_24_1_171_abs (- (- size 1) k) (select a_copy (- (- size 1) k)) (- (- size 1) k) (select a_copy (- (- size 1) k)) k (select a k) k (select a k) size k i) (= (select a k) (select a_copy (- (- size 1) k))))))
(assert (forall ( (i Int) (k Int) (size Int) (a (Array Int Int)) (a_copy (Array Int Int)) (i1 Int) (i2 Int) (i3 Int) (i4 Int)) (=> (and (assert_24_1_171_abs i3 (select a_copy i3) i3 (select a_copy i3) i1 (select a i1) i1 (select a i1) size k i) (assert_24_1_171_abs i3 (select a_copy i3) i3 (select a_copy i3) i1 (select a i1) i2 (select a i2) size k i) (assert_24_1_171_abs i3 (select a_copy i3) i3 (select a_copy i3) i2 (select a i2) i1 (select a i1) size k i) (assert_24_1_171_abs i3 (select a_copy i3) i3 (select a_copy i3) i2 (select a i2) i2 (select a i2) size k i) (assert_24_1_171_abs i3 (select a_copy i3) i4 (select a_copy i4) i1 (select a i1) i1 (select a i1) size k i) (assert_24_1_171_abs i3 (select a_copy i3) i4 (select a_copy i4) i1 (select a i1) i2 (select a i2) size k i) (assert_24_1_171_abs i3 (select a_copy i3) i4 (select a_copy i4) i2 (select a i2) i1 (select a i1) size k i) (assert_24_1_171_abs i3 (select a_copy i3) i4 (select a_copy i4) i2 (select a i2) i2 (select a i2) size k i) (assert_24_1_171_abs i4 (select a_copy i4) i3 (select a_copy i3) i1 (select a i1) i1 (select a i1) size k i) (assert_24_1_171_abs i4 (select a_copy i4) i3 (select a_copy i3) i1 (select a i1) i2 (select a i2) size k i) (assert_24_1_171_abs i4 (select a_copy i4) i3 (select a_copy i3) i2 (select a i2) i1 (select a i1) size k i) (assert_24_1_171_abs i4 (select a_copy i4) i3 (select a_copy i3) i2 (select a i2) i2 (select a i2) size k i) (assert_24_1_171_abs i4 (select a_copy i4) i4 (select a_copy i4) i1 (select a i1) i1 (select a i1) size k i) (assert_24_1_171_abs i4 (select a_copy i4) i4 (select a_copy i4) i1 (select a i1) i2 (select a i2) size k i) (assert_24_1_171_abs i4 (select a_copy i4) i4 (select a_copy i4) i2 (select a i2) i1 (select a i1) size k i) (assert_24_1_171_abs i4 (select a_copy i4) i4 (select a_copy i4) i2 (select a i2) i2 (select a i2) size k i)) (end_abs i4 (select a_copy i4) i3 (select a_copy i3) i2 (select a i2) i1 (select a i1) size k i))))
(check-sat)
